NAME : rnd38_50.tsp.tsp.optbc.tour
TYPE : TOUR
DIMENSION : 50
TOUR_SECTION
1
25
9
28
41
21
11
43
13
37
3
40
12
45
5
15
47
33
35
22
23
32
4
24
18
6
10
2
50
17
38
34
30
19
46
16
49
31
48
29
42
7
20
44
8
14
26
39
27
36
-1